data/solutions/recovery/degenerate/intermediate/binding/degenerate_intermediate_instance21/97.sol
Elapsed time: 0.03
Upper bound: 32333076.0
Planning weighted value: 1.01664451908e+11
C[0]=32333076.0
C[1]=32329995.0
C[2]=32312105.0
C[3]=30899853.0
C[4]=30076758.0
C[5]=25272913.0
C[6]=24531716.0
C[7]=24526570.0
C[8]=24429625.0
C[9]=24285935.0
C[10]=0.0
C[11]=0.0
y[0]=3
y[1]=6
y[2]=7
y[3]=3
y[4]=2
y[5]=2
y[6]=4
y[7]=4
y[8]=2
y[9]=8
y[10]=1
y[11]=3
y[12]=4
y[13]=3
y[14]=9
y[15]=0
y[16]=6
y[17]=3
y[18]=3
y[19]=4
y[20]=2
y[21]=2
y[22]=6
y[23]=4
y[24]=8
y[25]=3
y[26]=3
y[27]=6
y[28]=3
y[29]=4
y[30]=5
y[31]=0
y[32]=9
y[33]=4
y[34]=6
y[35]=2
y[36]=5
y[37]=4
y[38]=5
y[39]=4
y[40]=3
y[41]=2
y[42]=4
y[43]=3
y[44]=9
y[45]=2
y[46]=1
y[47]=7
y[48]=0
y[49]=7
y[50]=1
y[51]=0
y[52]=9
y[53]=9
y[54]=1
y[55]=1
y[56]=8
y[57]=5
y[58]=5
y[59]=8
y[60]=8
y[61]=1
y[62]=3
y[63]=0
y[64]=1
