data/solutions/recovery/degenerate/intermediate/binding/degenerate_intermediate_instance21/97.log

Log started (V12.6.3.0) Sun Apr 22 12:29:17 2018

New value for default parallel thread count: 1

Problem '/tmp/tmpuG8fEg.pyomo.lp' read.
Read time = 0.01 sec. (0.58 ticks)

Problem name         : /tmp/tmpuG8fEg.pyomo.lp
Objective sense      : Minimize
Variables            :     794  [Nneg: 1,  Binary: 780,  General Integer: 13]
Objective nonzeros   :       1
Linear constraints   :     157  [Less: 77,  Equal: 80]
  Nonzeros           :   41016
  RHS nonzeros       :      66

Variables            : Min LB: 0.000000         Max UB: 1.000000       
Objective nonzeros   : Min   : 1.000000         Max   : 1.000000       
Linear constraints   :
  Nonzeros           : Min   : 1.000000         Max   : 8298339.       
  RHS nonzeros       : Min   : 1.000000         Max   : 1.000000       
Tried aggregator 2 times.
MIP Presolve eliminated 128 rows and 693 columns.
Aggregator did 10 substitutions.
Reduced MIP has 19 rows, 91 columns, and 190 nonzeros.
Reduced MIP has 90 binaries, 1 generals, 0 SOSs, and 0 indicators.
Presolve time = 0.00 sec. (2.98 ticks)
Found incumbent of value 5.2773427e+07 after 0.00 sec. (4.00 ticks)
Probing time = 0.00 sec. (0.09 ticks)
Cover probing fixed 0 vars, tightened 3 bounds.
Tried aggregator 1 time.
Reduced MIP has 19 rows, 91 columns, and 190 nonzeros.
Reduced MIP has 90 binaries, 1 generals, 0 SOSs, and 0 indicators.
Presolve time = 0.00 sec. (0.14 ticks)
Probing time = 0.00 sec. (0.09 ticks)
Clique table members: 9.
MIP emphasis: balance optimality and feasibility.
MIP search method: dynamic search.
Parallel mode: none, using 1 thread.
Root relaxation solution time = 0.00 sec. (0.06 ticks)

        Nodes                                         Cuts/
   Node  Left     Objective  IInf  Best Integer    Best Bound    ItCnt     Gap

*     0+    0                       5.27734e+07   3.23331e+07            38.73%
      0     0   3.23331e+07     5   5.27734e+07   3.23331e+07        4   38.73%
*     0+    0                       3.23331e+07   3.23331e+07             0.00%
      0     0        cutoff         3.23331e+07   3.23331e+07        4    0.00%
Elapsed time = 0.00 sec. (4.57 ticks, tree = 0.01 MB, solutions = 1)

Root node processing (before b&c):
  Real time             =    0.00 sec. (4.59 ticks)
Sequential b&c:
  Real time             =    0.00 sec. (0.00 ticks)
                          ------------
Total (root+branch&cut) =    0.00 sec. (4.59 ticks)

Solution pool: 1 solution saved.

MIP - Integer optimal solution:  Objective =  3.2333076000e+07
Solution time =    0.00 sec.  Iterations = 4  Nodes = 0
Deterministic time = 4.59 ticks  (949.42 ticks/sec)


Incumbent solution written to file '/tmp/tmpUEJDA5.cplex.sol'.
